c Standarized MaxSat Instance
c{
c "sha1sum": "f7c58a63c009deed27cc657a7196d8cc6c28022b",
c "nvars": 40,
c "ncls": 1132,
c "nhards": 0,
c "nhard_len_stats":
c    { "min": 0, "max": 0, "ave": 0.00,
c      "stddev": 0.00 },
c "nsofts": 1132,
c "nsoft_len_stats":
c    { "min": 2, "max": 2, "ave": 2.00,
c      "stddev": 0.00 },
c "nsoft_wts": 10,
c "soft_wt_stats":
c    { "min": 1, "max": 10, "ave": 5.65,
c      "stddev": 2.81 }
c}
c------------------------------------------------------------
c FILE:  brock200_1.b
c
c Graph Generator
c
c By: Mark Brockington (brock@cs.ualberta.ca)
c and Joe Culberson (joe@cs.ualberta.ca)
c
c Graph Size:200, Clique Size: 21
c Seed:0, Edge Density:  0.75000
c Depth 1 Hiding
c
c Clique Elements are:
c 133 17 92 177 38 19 84 134 107 89 
c 185 91 67 141 149 72 101 135 86 93 
c 80 
c
c Estimated Size of Uncompressed File:   0.1MB
c
p wcnf 40 1132 6395
9 1 2 0
9 -1 -2 0
4 1 3 0
4 -1 -3 0
8 1 4 0
8 -1 -4 0
8 1 6 0
8 -1 -6 0
10 1 7 0
10 -1 -7 0
2 1 8 0
2 -1 -8 0
4 1 9 0
4 -1 -9 0
8 1 10 0
8 -1 -10 0
3 1 12 0
3 -1 -12 0
6 1 13 0
6 -1 -13 0
5 1 14 0
5 -1 -14 0
7 1 16 0
7 -1 -16 0
4 1 17 0
4 -1 -17 0
6 1 18 0
6 -1 -18 0
10 1 19 0
10 -1 -19 0
10 1 20 0
10 -1 -20 0
7 1 22 0
7 -1 -22 0
8 1 23 0
8 -1 -23 0
2 1 24 0
2 -1 -24 0
7 1 31 0
7 -1 -31 0
1 1 33 0
1 -1 -33 0
3 1 34 0
3 -1 -34 0
2 1 36 0
2 -1 -36 0
9 1 38 0
9 -1 -38 0
2 1 39 0
2 -1 -39 0
5 2 3 0
5 -2 -3 0
2 2 4 0
2 -2 -4 0
2 2 5 0
2 -2 -5 0
10 2 6 0
10 -2 -6 0
3 2 7 0
3 -2 -7 0
6 2 10 0
6 -2 -10 0
9 2 11 0
9 -2 -11 0
7 2 12 0
7 -2 -12 0
3 2 14 0
3 -2 -14 0
7 2 15 0
7 -2 -15 0
6 2 16 0
6 -2 -16 0
5 2 17 0
5 -2 -17 0
10 2 18 0
10 -2 -18 0
3 2 19 0
3 -2 -19 0
8 2 20 0
8 -2 -20 0
6 2 22 0
6 -2 -22 0
8 2 23 0
8 -2 -23 0
5 2 25 0
5 -2 -25 0
9 2 27 0
9 -2 -27 0
3 2 28 0
3 -2 -28 0
4 2 29 0
4 -2 -29 0
9 2 31 0
9 -2 -31 0
10 2 33 0
10 -2 -33 0
1 2 34 0
1 -2 -34 0
10 2 35 0
10 -2 -35 0
6 2 38 0
6 -2 -38 0
1 2 40 0
1 -2 -40 0
2 3 4 0
2 -3 -4 0
7 3 5 0
7 -3 -5 0
9 3 7 0
9 -3 -7 0
4 3 9 0
4 -3 -9 0
1 3 10 0
1 -3 -10 0
1 3 11 0
1 -3 -11 0
5 3 13 0
5 -3 -13 0
1 3 14 0
1 -3 -14 0
3 3 15 0
3 -3 -15 0
10 3 16 0
10 -3 -16 0
10 3 17 0
10 -3 -17 0
9 3 18 0
9 -3 -18 0
3 3 19 0
3 -3 -19 0
6 3 20 0
6 -3 -20 0
4 3 21 0
4 -3 -21 0
8 3 23 0
8 -3 -23 0
6 3 24 0
6 -3 -24 0
7 3 25 0
7 -3 -25 0
6 3 26 0
6 -3 -26 0
1 3 27 0
1 -3 -27 0
5 3 29 0
5 -3 -29 0
10 3 30 0
10 -3 -30 0
10 3 32 0
10 -3 -32 0
8 3 33 0
8 -3 -33 0
3 3 34 0
3 -3 -34 0
8 3 36 0
8 -3 -36 0
7 3 37 0
7 -3 -37 0
4 3 38 0
4 -3 -38 0
7 4 5 0
7 -4 -5 0
2 4 6 0
2 -4 -6 0
5 4 7 0
5 -4 -7 0
9 4 8 0
9 -4 -8 0
9 4 10 0
9 -4 -10 0
4 4 11 0
4 -4 -11 0
3 4 12 0
3 -4 -12 0
9 4 13 0
9 -4 -13 0
4 4 14 0
4 -4 -14 0
7 4 15 0
7 -4 -15 0
10 4 16 0
10 -4 -16 0
6 4 17 0
6 -4 -17 0
7 4 19 0
7 -4 -19 0
9 4 20 0
9 -4 -20 0
5 4 21 0
5 -4 -21 0
10 4 22 0
10 -4 -22 0
4 4 23 0
4 -4 -23 0
9 4 24 0
9 -4 -24 0
7 4 25 0
7 -4 -25 0
10 4 27 0
10 -4 -27 0
5 4 29 0
5 -4 -29 0
3 4 30 0
3 -4 -30 0
10 4 31 0
10 -4 -31 0
10 4 32 0
10 -4 -32 0
2 4 33 0
2 -4 -33 0
9 4 35 0
9 -4 -35 0
7 4 36 0
7 -4 -36 0
5 4 37 0
5 -4 -37 0
7 4 39 0
7 -4 -39 0
3 4 40 0
3 -4 -40 0
8 5 6 0
8 -5 -6 0
4 5 7 0
4 -5 -7 0
5 5 9 0
5 -5 -9 0
3 5 10 0
3 -5 -10 0
2 5 12 0
2 -5 -12 0
3 5 13 0
3 -5 -13 0
6 5 14 0
6 -5 -14 0
5 5 15 0
5 -5 -15 0
2 5 18 0
2 -5 -18 0
10 5 19 0
10 -5 -19 0
2 5 20 0
2 -5 -20 0
2 5 21 0
2 -5 -21 0
5 5 23 0
5 -5 -23 0
8 5 24 0
8 -5 -24 0
10 5 25 0
10 -5 -25 0
10 5 26 0
10 -5 -26 0
7 5 27 0
7 -5 -27 0
4 5 29 0
4 -5 -29 0
8 5 30 0
8 -5 -30 0
4 5 31 0
4 -5 -31 0
3 5 32 0
3 -5 -32 0
3 5 34 0
3 -5 -34 0
6 5 35 0
6 -5 -35 0
3 5 36 0
3 -5 -36 0
2 5 37 0
2 -5 -37 0
8 5 39 0
8 -5 -39 0
2 5 40 0
2 -5 -40 0
8 6 7 0
8 -6 -7 0
2 6 8 0
2 -6 -8 0
8 6 9 0
8 -6 -9 0
1 6 10 0
1 -6 -10 0
10 6 11 0
10 -6 -11 0
1 6 12 0
1 -6 -12 0
6 6 13 0
6 -6 -13 0
2 6 15 0
2 -6 -15 0
3 6 16 0
3 -6 -16 0
8 6 17 0
8 -6 -17 0
8 6 18 0
8 -6 -18 0
7 6 19 0
7 -6 -19 0
10 6 21 0
10 -6 -21 0
7 6 22 0
7 -6 -22 0
8 6 23 0
8 -6 -23 0
1 6 24 0
1 -6 -24 0
2 6 25 0
2 -6 -25 0
6 6 26 0
6 -6 -26 0
1 6 27 0
1 -6 -27 0
1 6 29 0
1 -6 -29 0
3 6 30 0
3 -6 -30 0
5 6 31 0
5 -6 -31 0
9 6 32 0
9 -6 -32 0
6 6 34 0
6 -6 -34 0
8 6 35 0
8 -6 -35 0
1 6 36 0
1 -6 -36 0
2 6 37 0
2 -6 -37 0
10 6 38 0
10 -6 -38 0
3 6 39 0
3 -6 -39 0
9 6 40 0
9 -6 -40 0
2 7 8 0
2 -7 -8 0
10 7 9 0
10 -7 -9 0
1 7 13 0
1 -7 -13 0
9 7 15 0
9 -7 -15 0
1 7 17 0
1 -7 -17 0
1 7 18 0
1 -7 -18 0
10 7 20 0
10 -7 -20 0
6 7 21 0
6 -7 -21 0
2 7 22 0
2 -7 -22 0
2 7 23 0
2 -7 -23 0
4 7 24 0
4 -7 -24 0
10 7 25 0
10 -7 -25 0
9 7 26 0
9 -7 -26 0
4 7 30 0
4 -7 -30 0
6 7 31 0
6 -7 -31 0
6 7 33 0
6 -7 -33 0
5 7 35 0
5 -7 -35 0
7 7 36 0
7 -7 -36 0
1 7 37 0
1 -7 -37 0
6 8 9 0
6 -8 -9 0
8 8 10 0
8 -8 -10 0
4 8 11 0
4 -8 -11 0
10 8 12 0
10 -8 -12 0
6 8 13 0
6 -8 -13 0
9 8 15 0
9 -8 -15 0
8 8 16 0
8 -8 -16 0
7 8 17 0
7 -8 -17 0
1 8 18 0
1 -8 -18 0
8 8 19 0
8 -8 -19 0
9 8 20 0
9 -8 -20 0
10 8 21 0
10 -8 -21 0
9 8 24 0
9 -8 -24 0
9 8 25 0
9 -8 -25 0
10 8 26 0
10 -8 -26 0
8 8 27 0
8 -8 -27 0
10 8 32 0
10 -8 -32 0
10 8 34 0
10 -8 -34 0
7 8 35 0
7 -8 -35 0
5 8 37 0
5 -8 -37 0
2 8 38 0
2 -8 -38 0
9 8 39 0
9 -8 -39 0
9 8 40 0
9 -8 -40 0
1 9 10 0
1 -9 -10 0
7 9 11 0
7 -9 -11 0
3 9 12 0
3 -9 -12 0
7 9 13 0
7 -9 -13 0
3 9 14 0
3 -9 -14 0
8 9 15 0
8 -9 -15 0
4 9 17 0
4 -9 -17 0
4 9 19 0
4 -9 -19 0
3 9 23 0
3 -9 -23 0
1 9 24 0
1 -9 -24 0
7 9 25 0
7 -9 -25 0
3 9 26 0
3 -9 -26 0
7 9 28 0
7 -9 -28 0
6 9 30 0
6 -9 -30 0
10 9 31 0
10 -9 -31 0
3 9 32 0
3 -9 -32 0
6 9 33 0
6 -9 -33 0
8 9 34 0
8 -9 -34 0
2 9 36 0
2 -9 -36 0
5 9 38 0
5 -9 -38 0
6 9 39 0
6 -9 -39 0
10 9 40 0
10 -9 -40 0
5 10 11 0
5 -10 -11 0
4 10 12 0
4 -10 -12 0
9 10 13 0
9 -10 -13 0
5 10 14 0
5 -10 -14 0
1 10 15 0
1 -10 -15 0
4 10 17 0
4 -10 -17 0
6 10 18 0
6 -10 -18 0
9 10 19 0
9 -10 -19 0
3 10 20 0
3 -10 -20 0
7 10 21 0
7 -10 -21 0
5 10 22 0
5 -10 -22 0
5 10 23 0
5 -10 -23 0
4 10 25 0
4 -10 -25 0
8 10 28 0
8 -10 -28 0
2 10 29 0
2 -10 -29 0
7 10 30 0
7 -10 -30 0
1 10 31 0
1 -10 -31 0
5 10 33 0
5 -10 -33 0
7 10 35 0
7 -10 -35 0
7 10 37 0
7 -10 -37 0
7 10 39 0
7 -10 -39 0
4 10 40 0
4 -10 -40 0
2 11 12 0
2 -11 -12 0
7 11 13 0
7 -11 -13 0
7 11 15 0
7 -11 -15 0
8 11 18 0
8 -11 -18 0
4 11 20 0
4 -11 -20 0
8 11 21 0
8 -11 -21 0
3 11 22 0
3 -11 -22 0
10 11 24 0
10 -11 -24 0
7 11 26 0
7 -11 -26 0
7 11 27 0
7 -11 -27 0
3 11 28 0
3 -11 -28 0
6 11 29 0
6 -11 -29 0
1 11 30 0
1 -11 -30 0
3 11 31 0
3 -11 -31 0
9 11 32 0
9 -11 -32 0
7 11 33 0
7 -11 -33 0
1 11 34 0
1 -11 -34 0
2 11 35 0
2 -11 -35 0
4 11 38 0
4 -11 -38 0
6 11 39 0
6 -11 -39 0
6 12 13 0
6 -12 -13 0
7 12 14 0
7 -12 -14 0
3 12 15 0
3 -12 -15 0
8 12 16 0
8 -12 -16 0
3 12 17 0
3 -12 -17 0
4 12 18 0
4 -12 -18 0
2 12 20 0
2 -12 -20 0
10 12 21 0
10 -12 -21 0
1 12 22 0
1 -12 -22 0
9 12 23 0
9 -12 -23 0
4 12 24 0
4 -12 -24 0
2 12 25 0
2 -12 -25 0
5 12 26 0
5 -12 -26 0
10 12 28 0
10 -12 -28 0
10 12 29 0
10 -12 -29 0
8 12 30 0
8 -12 -30 0
7 12 31 0
7 -12 -31 0
2 12 32 0
2 -12 -32 0
7 12 33 0
7 -12 -33 0
4 12 35 0
4 -12 -35 0
8 12 36 0
8 -12 -36 0
10 12 37 0
10 -12 -37 0
10 12 38 0
10 -12 -38 0
9 12 40 0
9 -12 -40 0
3 13 14 0
3 -13 -14 0
8 13 15 0
8 -13 -15 0
6 13 16 0
6 -13 -16 0
3 13 17 0
3 -13 -17 0
10 13 18 0
10 -13 -18 0
10 13 19 0
10 -13 -19 0
9 13 20 0
9 -13 -20 0
5 13 21 0
5 -13 -21 0
6 13 23 0
6 -13 -23 0
2 13 26 0
2 -13 -26 0
3 13 27 0
3 -13 -27 0
9 13 30 0
9 -13 -30 0
5 13 31 0
5 -13 -31 0
5 13 34 0
5 -13 -34 0
9 13 35 0
9 -13 -35 0
5 13 36 0
5 -13 -36 0
3 13 37 0
3 -13 -37 0
2 13 38 0
2 -13 -38 0
7 13 40 0
7 -13 -40 0
8 14 15 0
8 -14 -15 0
2 14 16 0
2 -14 -16 0
7 14 17 0
7 -14 -17 0
5 14 20 0
5 -14 -20 0
9 14 26 0
9 -14 -26 0
8 14 27 0
8 -14 -27 0
2 14 28 0
2 -14 -28 0
3 14 29 0
3 -14 -29 0
5 14 30 0
5 -14 -30 0
2 14 31 0
2 -14 -31 0
2 14 32 0
2 -14 -32 0
4 14 33 0
4 -14 -33 0
4 14 35 0
4 -14 -35 0
10 14 36 0
10 -14 -36 0
10 14 37 0
10 -14 -37 0
7 14 38 0
7 -14 -38 0
9 14 39 0
9 -14 -39 0
9 14 40 0
9 -14 -40 0
5 15 16 0
5 -15 -16 0
4 15 17 0
4 -15 -17 0
4 15 19 0
4 -15 -19 0
7 15 20 0
7 -15 -20 0
7 15 21 0
7 -15 -21 0
3 15 22 0
3 -15 -22 0
2 15 23 0
2 -15 -23 0
1 15 25 0
1 -15 -25 0
2 15 26 0
2 -15 -26 0
7 15 27 0
7 -15 -27 0
4 15 28 0
4 -15 -28 0
3 15 29 0
3 -15 -29 0
4 15 30 0
4 -15 -30 0
1 15 31 0
1 -15 -31 0
5 15 34 0
5 -15 -34 0
10 15 36 0
10 -15 -36 0
6 15 37 0
6 -15 -37 0
3 15 38 0
3 -15 -38 0
7 15 40 0
7 -15 -40 0
8 16 17 0
8 -16 -17 0
5 16 18 0
5 -16 -18 0
2 16 19 0
2 -16 -19 0
9 16 20 0
9 -16 -20 0
7 16 21 0
7 -16 -21 0
6 16 22 0
6 -16 -22 0
3 16 25 0
3 -16 -25 0
6 16 26 0
6 -16 -26 0
5 16 27 0
5 -16 -27 0
9 16 29 0
9 -16 -29 0
4 16 31 0
4 -16 -31 0
3 16 32 0
3 -16 -32 0
4 16 33 0
4 -16 -33 0
8 16 34 0
8 -16 -34 0
7 16 35 0
7 -16 -35 0
10 16 36 0
10 -16 -36 0
4 16 37 0
4 -16 -37 0
9 16 39 0
9 -16 -39 0
2 16 40 0
2 -16 -40 0
5 17 18 0
5 -17 -18 0
1 17 19 0
1 -17 -19 0
8 17 21 0
8 -17 -21 0
8 17 22 0
8 -17 -22 0
3 17 23 0
3 -17 -23 0
2 17 24 0
2 -17 -24 0
9 17 26 0
9 -17 -26 0
8 17 27 0
8 -17 -27 0
1 17 28 0
1 -17 -28 0
5 17 30 0
5 -17 -30 0
10 17 31 0
10 -17 -31 0
8 17 33 0
8 -17 -33 0
3 17 34 0
3 -17 -34 0
5 17 35 0
5 -17 -35 0
9 17 36 0
9 -17 -36 0
1 17 38 0
1 -17 -38 0
1 18 20 0
1 -18 -20 0
4 18 21 0
4 -18 -21 0
4 18 22 0
4 -18 -22 0
7 18 23 0
7 -18 -23 0
9 18 24 0
9 -18 -24 0
2 18 26 0
2 -18 -26 0
1 18 28 0
1 -18 -28 0
1 18 29 0
1 -18 -29 0
5 18 31 0
5 -18 -31 0
8 18 33 0
8 -18 -33 0
7 18 34 0
7 -18 -34 0
5 18 35 0
5 -18 -35 0
2 18 36 0
2 -18 -36 0
6 18 38 0
6 -18 -38 0
6 18 40 0
6 -18 -40 0
6 19 20 0
6 -19 -20 0
6 19 21 0
6 -19 -21 0
4 19 22 0
4 -19 -22 0
4 19 23 0
4 -19 -23 0
9 19 24 0
9 -19 -24 0
5 19 25 0
5 -19 -25 0
2 19 26 0
2 -19 -26 0
7 19 27 0
7 -19 -27 0
6 19 29 0
6 -19 -29 0
7 19 30 0
7 -19 -30 0
6 19 33 0
6 -19 -33 0
3 19 34 0
3 -19 -34 0
9 19 35 0
9 -19 -35 0
1 19 36 0
1 -19 -36 0
1 19 37 0
1 -19 -37 0
10 20 21 0
10 -20 -21 0
2 20 22 0
2 -20 -22 0
5 20 23 0
5 -20 -23 0
3 20 27 0
3 -20 -27 0
9 20 32 0
9 -20 -32 0
3 20 35 0
3 -20 -35 0
4 20 37 0
4 -20 -37 0
9 20 38 0
9 -20 -38 0
4 20 39 0
4 -20 -39 0
9 21 22 0
9 -21 -22 0
7 21 24 0
7 -21 -24 0
1 21 25 0
1 -21 -25 0
3 21 26 0
3 -21 -26 0
8 21 27 0
8 -21 -27 0
7 21 28 0
7 -21 -28 0
9 21 29 0
9 -21 -29 0
4 21 30 0
4 -21 -30 0
3 21 31 0
3 -21 -31 0
2 21 32 0
2 -21 -32 0
7 21 33 0
7 -21 -33 0
2 21 35 0
2 -21 -35 0
7 21 36 0
7 -21 -36 0
8 21 37 0
8 -21 -37 0
8 22 23 0
8 -22 -23 0
3 22 24 0
3 -22 -24 0
5 22 25 0
5 -22 -25 0
4 22 26 0
4 -22 -26 0
5 22 28 0
5 -22 -28 0
3 22 31 0
3 -22 -31 0
4 22 32 0
4 -22 -32 0
6 22 33 0
6 -22 -33 0
2 22 34 0
2 -22 -34 0
6 22 35 0
6 -22 -35 0
1 22 36 0
1 -22 -36 0
4 22 37 0
4 -22 -37 0
4 22 40 0
4 -22 -40 0
4 23 25 0
4 -23 -25 0
8 23 26 0
8 -23 -26 0
3 23 27 0
3 -23 -27 0
7 23 28 0
7 -23 -28 0
6 23 32 0
6 -23 -32 0
10 23 33 0
10 -23 -33 0
7 23 35 0
7 -23 -35 0
9 23 36 0
9 -23 -36 0
7 23 37 0
7 -23 -37 0
4 23 39 0
4 -23 -39 0
7 23 40 0
7 -23 -40 0
1 24 25 0
1 -24 -25 0
6 24 27 0
6 -24 -27 0
9 24 29 0
9 -24 -29 0
7 24 32 0
7 -24 -32 0
7 24 33 0
7 -24 -33 0
6 24 36 0
6 -24 -36 0
5 24 37 0
5 -24 -37 0
4 24 38 0
4 -24 -38 0
8 24 39 0
8 -24 -39 0
9 24 40 0
9 -24 -40 0
7 25 26 0
7 -25 -26 0
2 25 27 0
2 -25 -27 0
1 25 28 0
1 -25 -28 0
1 25 29 0
1 -25 -29 0
7 25 30 0
7 -25 -30 0
2 25 31 0
2 -25 -31 0
7 25 32 0
7 -25 -32 0
8 25 33 0
8 -25 -33 0
6 25 34 0
6 -25 -34 0
1 25 35 0
1 -25 -35 0
1 25 37 0
1 -25 -37 0
4 25 38 0
4 -25 -38 0
3 25 39 0
3 -25 -39 0
7 25 40 0
7 -25 -40 0
9 26 27 0
9 -26 -27 0
2 26 28 0
2 -26 -28 0
4 26 29 0
4 -26 -29 0
7 26 31 0
7 -26 -31 0
9 26 32 0
9 -26 -32 0
7 26 33 0
7 -26 -33 0
4 26 34 0
4 -26 -34 0
9 26 35 0
9 -26 -35 0
2 26 36 0
2 -26 -36 0
2 26 37 0
2 -26 -37 0
6 26 38 0
6 -26 -38 0
9 26 39 0
9 -26 -39 0
7 26 40 0
7 -26 -40 0
10 27 28 0
10 -27 -28 0
2 27 30 0
2 -27 -30 0
4 27 31 0
4 -27 -31 0
8 27 32 0
8 -27 -32 0
9 27 33 0
9 -27 -33 0
6 27 34 0
6 -27 -34 0
8 27 35 0
8 -27 -35 0
10 27 36 0
10 -27 -36 0
3 27 37 0
3 -27 -37 0
10 27 38 0
10 -27 -38 0
6 27 39 0
6 -27 -39 0
10 28 31 0
10 -28 -31 0
5 28 32 0
5 -28 -32 0
6 28 33 0
6 -28 -33 0
10 28 34 0
10 -28 -34 0
8 28 35 0
8 -28 -35 0
9 28 36 0
9 -28 -36 0
6 28 38 0
6 -28 -38 0
7 28 40 0
7 -28 -40 0
10 29 31 0
10 -29 -31 0
10 29 32 0
10 -29 -32 0
4 29 33 0
4 -29 -33 0
9 29 34 0
9 -29 -34 0
6 29 35 0
6 -29 -35 0
7 29 36 0
7 -29 -36 0
8 29 37 0
8 -29 -37 0
8 29 38 0
8 -29 -38 0
8 29 39 0
8 -29 -39 0
3 30 31 0
3 -30 -31 0
7 30 32 0
7 -30 -32 0
5 30 33 0
5 -30 -33 0
2 30 35 0
2 -30 -35 0
8 30 38 0
8 -30 -38 0
9 30 39 0
9 -30 -39 0
9 30 40 0
9 -30 -40 0
7 31 32 0
7 -31 -32 0
5 31 33 0
5 -31 -33 0
7 31 37 0
7 -31 -37 0
6 31 39 0
6 -31 -39 0
7 31 40 0
7 -31 -40 0
6 32 33 0
6 -32 -33 0
2 32 34 0
2 -32 -34 0
6 32 35 0
6 -32 -35 0
1 32 36 0
1 -32 -36 0
8 32 39 0
8 -32 -39 0
6 32 40 0
6 -32 -40 0
9 33 35 0
9 -33 -35 0
6 33 37 0
6 -33 -37 0
2 33 38 0
2 -33 -38 0
5 33 39 0
5 -33 -39 0
6 34 35 0
6 -34 -35 0
1 34 37 0
1 -34 -37 0
9 34 40 0
9 -34 -40 0
4 35 36 0
4 -35 -36 0
7 35 37 0
7 -35 -37 0
5 35 38 0
5 -35 -38 0
2 35 40 0
2 -35 -40 0
5 36 38 0
5 -36 -38 0
3 36 39 0
3 -36 -39 0
5 36 40 0
5 -36 -40 0
1 37 38 0
1 -37 -38 0
8 37 39 0
8 -37 -39 0
6 38 39 0
6 -38 -39 0
9 39 40 0
9 -39 -40 0
